2151.6
0 4 56 29 1 7 46 8 83 5 2 0
0 67 55 10 11 18 59 53 0
0 19 20 9 78 25 23 22 21 0
0 87 97 6 31 30 28 0
0 37 38 32 35 34 33 39 0
0 3 24 50 47 45 44 42 41 40 0
0 49 48 60 92 52 54 0
0 63 64 14 61 93 99 96 58 0
0 66 65 68 26 0
0 75 74 72 73 70 71 77 76 0
0 80 79 81 51 90 88 82 84 0
0 85 86 17 36 62 69 0
0 91 16 57 95 94 89 0
0 15 43 100 98 13 12 27 0
